
Gurobi 9.5.1 (linux64) logging started Tue 16 Aug 2022 04:12:28 PM MST

Set parameter LogFile to value "/home/local/ASUAD/kmajd1/NNRepLayer_v2/demos/walking_example/global_constraint_upper_10/repair_net/logs/opt_log_multi_22.log"
Gurobi Optimizer version 9.5.1 build v9.5.1rc2 (linux64)
Thread count: 48 physical cores, 96 logical processors, using up to 45 threads
Optimize a model with 16863 rows, 10742 columns and 129023 nonzeros
Model fingerprint: 0x235123a3
Model has 149 quadratic objective terms
Variable types: 5974 continuous, 4768 integer (4768 binary)
Coefficient statistics:
  Matrix range     [2e-03, 2e+02]
  Objective range  [9e-03, 1e+00]
  QObjective range [1e-02, 1e-02]
  Bounds range     [1e+00, 1e+03]
  RHS range        [9e-05, 2e+02]

Concurrent MIP optimizer: 3 concurrent instances (15 threads per instance)

Presolve removed 298 rows and 0 columns
Presolve time: 0.13s
Presolved: 16565 rows, 10742 columns, 128725 nonzeros
Presolved model has 149 quadratic objective terms
Variable types: 5974 continuous, 4768 integer (4768 binary)
Root relaxation presolve removed 4768 rows and 4768 columns
Root relaxation presolved: 11797 rows, 5974 columns, 114421 nonzeros
Root relaxation presolved model has 149 quadratic objective terms


Root relaxation: objective 3.221895e+01, 7599 iterations, 0.22 seconds (0.28 work units)

    Nodes    |    Current Node    |     Objective Bounds      |     Work
 Expl Unexpl |  Obj  Depth IntInf | Incumbent    BestBd   Gap | It/Node Time

     0     0      -    -    -      193.06645   32.21895  83.3%     -    0s
     0     0      -    -    -      190.21248   32.21895  83.1%     -    3s
     0     2      -    -    -      188.78519   32.21895  82.9%     -   12s
   201   220      -    -    -      188.09893   32.21895  82.9%     -   15s
   219   235      -    -    -       39.47281   32.21895  18.4%     -   22s
   234   250      -    -    -       37.89975   32.21895  15.0%     -   26s
   340   406      -    -    -       37.73729   32.21895  14.6%     -   30s
   801   925      -    -    -       37.73729   32.21895  14.6%     -   35s
  1642  1762      -    -    -       37.73729   32.21895  14.6%     -   40s
  2917  2967      -    -    -       36.49634   32.21895  11.7%     -   45s
  5029  5353      -    -    -       36.48763   32.21895  11.7%     -   50s
  6807  7218      -    -    -       36.48763   32.21895  11.7%     -   55s
  7972  8044      -    -    -       36.48763   32.21895  11.7%     -   62s
  8462  8939      -    -    -       36.48763   32.21895  11.7%     -   65s
  9861 10359      -    -    -       36.48763   32.21895  11.7%     -   70s
 10359 10360      -    -    -       36.48763   32.21895  11.7%     -   85s
 10361  9842      -    -    -       36.48763   32.21895  11.7%     -   91s
 10363  8885      -    -    -       36.48763   32.21895  11.7%     -  107s
 10393  8476      -    -    -       36.48763   32.21895  11.7%     -  118s
 10465  7701      -    -    -       36.48763   32.21895  11.7%     -  144s
 10480  6625      -    -    -       36.48763   32.21895  11.7%     -  170s
 11525  6687      -    -    -       36.29510   32.21895  11.2%     -  196s

Resetting heuristic parameters to focus on improving solution
(using Heuristics=0.5 and RINS=10)...

 11543  6181      -    -    -       36.29510   32.21895  11.2%     -  205s
 11618  5184      -    -    -       36.23084   32.21895  11.1%     -  230s
 11888  4941      -    -    -       36.19267   32.21895  11.0%     -  272s

Instance 0 was solved

Explored 11903 nodes (2607159 simplex iterations) in 272.35 seconds (647.47 work units)
Thread count was 15 (of 96 available processors)

Solution count 10: 36.1642 36.1707 36.1866 ... 36.2069 

Optimal solution found (tolerance 1.10e-01)
Best objective 3.616416900752e+01, best bound 3.221895104501e+01, gap 10.9092%
